unknown
(:binary-propagations  986
 :decisions            1107
 :del-clause           493
 :final-checks         4
 :max-generation       1
 :max-memory           27.44
 :memory               21.84
 :mk-bool-var          2479
 :mk-clause            743
 :mk-clause-binary     1486
 :num-allocs           179839844
 :num-checks           1
 :propagations         1379
 :quant-instantiations 493
 :restarts             3
 :rlimit-count         1719164
 :time                 0.30)
